(declare-fun var0 () String)
(declare-fun var1 () String)
(declare-fun var2 () String)
(declare-fun var3 () String)
(declare-fun var4 () String)
(declare-fun var5 () String)
(declare-fun var6 () String)
(declare-fun var7 () String)
(declare-fun var8 () String)
(declare-fun var9 () String)
(declare-fun var10 () String)
(declare-fun var11 () String)
(declare-fun var12 () String)
(declare-fun var13 () String)
(declare-fun var14 () String)
(declare-fun var15 () String)
(declare-fun var16 () String)
(declare-fun var17 () String)
(declare-fun var18 () String)
(declare-fun var19 () String)
(declare-fun var20 () String)
(declare-fun var21 () String)
(declare-fun var22 () String)
(declare-fun var23 () String)
(declare-fun var24 () String)
(declare-fun var25 () String)
(declare-fun var26 () String)
(declare-fun var27 () String)
(declare-fun var28 () String)
(declare-fun var29 () String)
(declare-fun var30 () String)
(declare-fun var31 () String)
(declare-fun var32 () String)
(declare-fun var33 () String)
(declare-fun var34 () String)
(declare-fun var35 () String)
(declare-fun var36 () String)
(declare-fun var37 () String)
(declare-fun var38 () String)
(declare-fun var39 () String)
(declare-fun var40 () String)
(declare-fun var41 () String)
(declare-fun var42 () String)
(declare-fun var43 () String)
(declare-fun var44 () String)
(declare-fun var45 () String)
(declare-fun var46 () String)
(declare-fun var47 () String)
(declare-fun var48 () String)
(declare-fun var49 () String)
(declare-fun var50 () String)
(declare-fun var51 () String)
(declare-fun var52 () String)
(declare-fun var53 () String)
(declare-fun var54 () String)
(declare-fun var55 () String)
(declare-fun var56 () String)
(declare-fun var57 () String)
(declare-fun var58 () String)
(declare-fun var59 () String)
(declare-fun var60 () String)
(assert (= var0 (Concat var1 var2)))
(assert (= var2 (Concat var3 var4)))
(assert (= var4 (Concat var5 var6)))
(assert (= var6 (Concat var7 var8)))
(assert (= var8 (Concat var9 var10)))
(assert (= var10 (Concat var11 var12)))
(assert (= var12 (Concat var13 var14)))
(assert (= var14 (Concat var15 var16)))
(assert (= var16 (Concat var17 var18)))
(assert (= var18 (Concat var19 var20)))
(assert (= var20 (Concat var21 var22)))
(assert (= var22 (Concat var23 var24)))
(assert (= var24 (Concat var25 var26)))
(assert (= var26 (Concat var27 var28)))
(assert (= var28 (Concat var29 var30)))
(assert (= var30 (Concat var31 var32)))
(assert (= var32 (Concat var33 var34)))
(assert (= var34 (Concat var35 var36)))
(assert (= var36 (Concat var37 var38)))
(assert (= var38 (Concat var39 var40)))
(assert (= var40 (Concat var41 var42)))
(assert (= var42 (Concat var43 var44)))
(assert (= var44 (Concat var45 var46)))
(assert (= var46 (Concat var47 var48)))
(assert (= var48 (Concat var49 var50)))
(assert (= var50 (Concat var51 var52)))
(assert (= var52 (Concat var53 var54)))
(assert (= var54 (Concat var55 var56)))
(assert (= var56 (Concat var57 var58)))
(assert (= var58 (Concat var59 var60)))
(assert (= var0 "solution"))
(assert (= "2" (CharAt var59 400)))
(assert (= "-" (CharAt var7 70)))
(assert (= "z" (CharAt var0 182)))
(assert (= "g" (CharAt var49 12)))
(assert (= "s" (CharAt var28 951)))
(assert (= "O" (CharAt var38 156)))
(assert (= "H" (CharAt var18 19)))
(assert (= "D" (CharAt var31 556)))
(assert (= "t" (CharAt var20 587)))
(assert (= "h" (CharAt var6 80)))
(assert (= "G" (CharAt var49 420)))
(assert (= "|" (CharAt var38 119)))
(assert (= "Q" (CharAt var38 74)))
(assert (= "\\" (CharAt var15 175)))
(assert (= "b" (CharAt var51 655)))
(assert (= "'" (CharAt var58 603)))
(assert (= "h" (CharAt var3 800)))
(assert (= "$" (CharAt var52 434)))
(assert (= "s" (CharAt var40 219)))
(assert (= "`" (CharAt var21 912)))
(assert (= "%" (CharAt var50 860)))
(assert (= "]" (CharAt var22 446)))
(assert (= "K" (CharAt var2 700)))
(assert (= "d" (CharAt var52 868)))
(assert (= "?" (CharAt var10 482)))
(assert (= "i" (CharAt var27 768)))
(assert (= "I" (CharAt var7 849)))
(assert (= "z" (CharAt var58 467)))
(assert (= "M" (CharAt var13 622)))
(assert (= "}" (CharAt var39 659)))
(assert (= "?" (CharAt var47 797)))
(assert (= "z" (CharAt var41 475)))
(assert (= "n" (CharAt var12 845)))
(assert (= "X" (CharAt var22 614)))
(assert (= ">" (CharAt var8 919)))
(assert (= "+" (CharAt var58 410)))
(assert (= "b" (CharAt var45 680)))
(assert (= "Y" (CharAt var43 872)))
(assert (= "x" (CharAt var2 158)))
(assert (= "X" (CharAt var42 18)))
(assert (= "}" (CharAt var13 230)))
(assert (= "A" (CharAt var50 384)))
(assert (= "|" (CharAt var14 445)))
(assert (= "?" (CharAt var16 607)))
(assert (= "&" (CharAt var5 906)))
(assert (= "y" (CharAt var3 318)))
(assert (= "+" (CharAt var58 81)))
(assert (= "." (CharAt var19 429)))
(assert (= ":" (CharAt var13 768)))
(assert (= "9" (CharAt var45 957)))
(assert (= ";" (CharAt var7 955)))
(assert (= "o" (CharAt var28 856)))
(assert (= "\"" (CharAt var2 914)))
(assert (= "D" (CharAt var11 812)))
(assert (= "m" (CharAt var0 776)))
(assert (= "8" (CharAt var15 839)))
(assert (= "_" (CharAt var20 254)))
(assert (= "J" (CharAt var41 177)))
(assert (= "u" (CharAt var45 634)))
(assert (= ";" (CharAt var2 31)))
(assert (= "M" (CharAt var19 700)))
(assert (= "p" (CharAt var5 200)))
(assert (= "*" (CharAt var30 511)))
(assert (= "Z" (CharAt var49 782)))
(assert (= "S" (CharAt var58 469)))
(assert (= "]" (CharAt var52 207)))
(assert (= "'" (CharAt var52 26)))
(assert (= "|" (CharAt var33 512)))
(assert (= "-" (CharAt var35 676)))
(assert (= "{" (CharAt var28 258)))
(assert (= "y" (CharAt var52 44)))
(assert (= "]" (CharAt var9 460)))
(assert (= "h" (CharAt var28 233)))
(assert (= "d" (CharAt var2 793)))
(assert (= "S" (CharAt var60 966)))
(assert (= "V" (CharAt var39 684)))
(assert (= "6" (CharAt var30 765)))
(assert (= "n" (CharAt var30 346)))
(assert (= "G" (CharAt var32 155)))
(assert (= "U" (CharAt var11 848)))
(assert (= "/" (CharAt var15 209)))
(assert (= "2" (CharAt var36 581)))
(assert (= "t" (CharAt var21 934)))
(assert (= "." (CharAt var10 536)))
(assert (= "I" (CharAt var22 778)))
(assert (= "`" (CharAt var41 511)))
(assert (= "]" (CharAt var41 241)))
(assert (= "_" (CharAt var15 374)))
(assert (= "6" (CharAt var41 634)))
(assert (= "D" (CharAt var35 583)))
(assert (= "f" (CharAt var19 704)))
(assert (= "3" (CharAt var16 501)))
(assert (= "D" (CharAt var38 445)))
(assert (= "_" (CharAt var6 714)))
(assert (= ")" (CharAt var13 304)))
(assert (= "h" (CharAt var14 670)))
(assert (= "[" (CharAt var13 640)))
(assert (= "U" (CharAt var33 972)))
(assert (= "k" (CharAt var3 703)))
(assert (= "M" (CharAt var43 606)))
(assert (= "<" (CharAt var38 685)))
(assert (= "t" (CharAt var18 405)))
(assert (= "Y" (CharAt var32 781)))
(assert (= "A" (CharAt var23 120)))
(assert (= "W" (CharAt var14 634)))
(assert (= "4" (CharAt var42 0)))
(assert (= "a" (CharAt var10 369)))
(assert (= "j" (CharAt var2 927)))
(assert (= "\"" (CharAt var51 396)))
(assert (= ">" (CharAt var16 212)))
(assert (= "," (CharAt var54 137)))
(assert (= "i" (CharAt var33 552)))
(assert (= "[" (CharAt var7 509)))
(assert (= "'" (CharAt var23 234)))
(assert (= "J" (CharAt var16 927)))
(assert (= "0" (CharAt var48 617)))
(assert (= "t" (CharAt var28 541)))
(assert (= "9" (CharAt var59 436)))
(assert (= "!" (CharAt var6 979)))
(assert (= "j" (CharAt var39 489)))
(assert (= "6" (CharAt var16 820)))
(assert (= ")" (CharAt var28 644)))
(assert (= "f" (CharAt var6 468)))
(assert (= "2" (CharAt var44 113)))
(assert (= ";" (CharAt var37 775)))
(assert (= "r" (CharAt var45 651)))
(assert (= "<" (CharAt var17 458)))
(assert (= "J" (CharAt var5 608)))
(assert (= "|" (CharAt var47 31)))
(assert (= "c" (CharAt var0 579)))
(assert (= "2" (CharAt var16 110)))
(assert (= "V" (CharAt var41 291)))
(assert (= "N" (CharAt var38 668)))
(assert (= "z" (CharAt var55 271)))
(assert (= "@" (CharAt var31 621)))
(assert (= "v" (CharAt var6 138)))
(assert (= "\\" (CharAt var23 279)))
(assert (= ">" (CharAt var46 248)))
(assert (= "1" (CharAt var13 983)))
(assert (= "J" (CharAt var47 44)))
(assert (= "}" (CharAt var24 710)))
(assert (= "v" (CharAt var15 234)))
(assert (= "h" (CharAt var56 828)))
(assert (= "X" (CharAt var57 593)))
(assert (= "]" (CharAt var57 162)))
(assert (= "$" (CharAt var27 575)))
(assert (= "X" (CharAt var51 353)))
(assert (= ";" (CharAt var47 555)))
(assert (= "r" (CharAt var5 351)))
(assert (= "b" (CharAt var45 28)))
(assert (= "j" (CharAt var36 332)))
(assert (= "E" (CharAt var6 841)))
(assert (= "H" (CharAt var10 24)))
(assert (= "*" (CharAt var40 574)))
(assert (= "(" (CharAt var51 988)))
(assert (= "l" (CharAt var57 911)))
(assert (= "'" (CharAt var20 418)))
(assert (= "K" (CharAt var15 39)))
(assert (= "v" (CharAt var59 946)))
(assert (= "9" (CharAt var19 400)))
(assert (= "<" (CharAt var40 585)))
(assert (= "U" (CharAt var11 813)))
(assert (= "=" (CharAt var35 726)))
(assert (= "<" (CharAt var3 241)))
(assert (= "H" (CharAt var56 462)))
(assert (= "^" (CharAt var15 791)))
(assert (= "k" (CharAt var18 16)))
(assert (= "#" (CharAt var31 498)))
(assert (= "K" (CharAt var21 855)))
(assert (= "7" (CharAt var48 190)))
(assert (= "}" (CharAt var41 267)))
(assert (= "]" (CharAt var19 250)))
(assert (= "c" (CharAt var2 441)))
(assert (= "j" (CharAt var3 595)))
(assert (= "'" (CharAt var45 354)))
(assert (= "x" (CharAt var43 428)))
(assert (= "&" (CharAt var58 65)))
(assert (= "H" (CharAt var56 95)))
(assert (= "E" (CharAt var10 825)))
(assert (= "t" (CharAt var1 227)))
(assert (= "M" (CharAt var44 830)))
(assert (= "." (CharAt var7 127)))
(assert (= "j" (CharAt var1 106)))
(assert (= "j" (CharAt var2 252)))
(assert (= "C" (CharAt var50 910)))
(assert (= "=" (CharAt var44 783)))
(assert (= "n" (CharAt var23 462)))
(assert (= "'" (CharAt var23 71)))
(assert (= "t" (CharAt var13 695)))
(assert (= "v" (CharAt var53 336)))
(assert (= "A" (CharAt var33 38)))
(assert (= "J" (CharAt var1 156)))
(assert (= "s" (CharAt var38 150)))
(assert (= "[" (CharAt var21 834)))
(assert (= "}" (CharAt var0 476)))
(assert (= "C" (CharAt var5 655)))
(assert (= "+" (CharAt var2 597)))
(assert (= "A" (CharAt var2 265)))
(assert (= "M" (CharAt var34 782)))
(assert (= "]" (CharAt var49 577)))
(assert (= ">" (CharAt var1 790)))
(check-sat)